NAME: 640.vrp-C129-R5
TYPE: SoftCluVRP
DIMENSION:  641 
VEHICLES:  10 
GVRP_SETS:  129 
CAPACITY:  1400 
EDGE_WEIGHT_TYPE: EUC_2D
NODE_COORD_SECTION 
1 0.000000 0.000000
2 30.000000 0.000000
3 29.630699 4.693000
4 28.531700 9.270500
5 26.730200 13.619700
6 24.270500 17.633600
7 21.213200 21.213200
8 17.633600 24.270500
9 13.619700 26.730200
10 9.270500 28.531700
11 4.693000 29.630699
12 0.000000 30.000000
13 -4.693000 29.630699
14 -9.270500 28.531700
15 -13.619700 26.730200
16 -17.633600 24.270500
17 -21.213200 21.213200
18 -24.270500 17.633600
19 -26.730200 13.619700
20 -28.531700 9.270500
21 -29.630699 4.693000
22 -30.000000 0.000000
23 -29.630699 -4.693000
24 -28.531700 -9.270500
25 -26.730200 -13.619700
26 -24.270500 -17.633600
27 -21.213200 -21.213200
28 -17.633600 -24.270500
29 -13.619700 -26.730200
30 -9.270500 -28.531700
31 -4.693000 -29.630699
32 -0.000000 -30.000000
33 4.693000 -29.630699
34 9.270500 -28.531700
35 13.619700 -26.730200
36 17.633600 -24.270500
37 21.213200 -21.213200
38 24.270500 -17.633600
39 26.730200 -13.619700
40 28.531700 -9.270500
41 29.630699 -4.693000
42 60.000000 0.000000
43 59.261299 9.386100
44 57.063400 18.541000
45 53.460400 27.239401
46 48.541000 35.267101
47 42.426399 42.426399
48 35.267101 48.541000
49 27.239401 53.460400
50 18.541000 57.063400
51 9.386100 59.261299
52 0.000000 60.000000
53 -9.386100 59.261299
54 -18.541000 57.063400
55 -27.239401 53.460400
56 -35.267101 48.541000
57 -42.426399 42.426399
58 -48.541000 35.267101
59 -53.460400 27.239401
60 -57.063400 18.541000
61 -59.261299 9.386100
62 -60.000000 0.000000
63 -59.261299 -9.386100
64 -57.063400 -18.541000
65 -53.460400 -27.239401
66 -48.541000 -35.267101
67 -42.426399 -42.426399
68 -35.267101 -48.541000
69 -27.239401 -53.460400
70 -18.541000 -57.063400
71 -9.386100 -59.261299
72 -0.000000 -60.000000
73 9.386100 -59.261299
74 18.541000 -57.063400
75 27.239401 -53.460400
76 35.267101 -48.541000
77 42.426399 -42.426399
78 48.541000 -35.267101
79 53.460400 -27.239401
80 57.063400 -18.541000
81 59.261299 -9.386100
82 90.000000 0.000000
83 88.891998 14.079100
84 85.595100 27.811501
85 80.190598 40.859100
86 72.811501 52.900700
87 63.639599 63.639599
88 52.900700 72.811501
89 40.859100 80.190598
90 27.811501 85.595100
91 14.079100 88.891998
92 0.000000 90.000000
93 -14.079100 88.891998
94 -27.811501 85.595100
95 -40.859100 80.190598
96 -52.900700 72.811501
97 -63.639599 63.639599
98 -72.811501 52.900700
99 -80.190598 40.859100
100 -85.595100 27.811501
101 -88.891998 14.079100
102 -90.000000 0.000000
103 -88.891998 -14.079100
104 -85.595100 -27.811501
105 -80.190598 -40.859100
106 -72.811501 -52.900700
107 -63.639599 -63.639599
108 -52.900700 -72.811501
109 -40.859100 -80.190598
110 -27.811501 -85.595100
111 -14.079100 -88.891998
112 -0.000000 -90.000000
113 14.079100 -88.891998
114 27.811501 -85.595100
115 40.859100 -80.190598
116 52.900700 -72.811501
117 63.639599 -63.639599
118 72.811501 -52.900700
119 80.190598 -40.859100
120 85.595100 -27.811501
121 88.891998 -14.079100
122 120.000000 0.000000
123 118.522598 18.772100
124 114.126801 37.082001
125 106.920799 54.478901
126 97.082001 70.534203
127 84.852798 84.852798
128 70.534203 97.082001
129 54.478901 106.920799
130 37.082001 114.126801
131 18.772100 118.522598
132 0.000000 120.000000
133 -18.772100 118.522598
134 -37.082001 114.126801
135 -54.478901 106.920799
136 -70.534203 97.082001
137 -84.852798 84.852798
138 -97.082001 70.534203
139 -106.920799 54.478901
140 -114.126801 37.082001
141 -118.522598 18.772100
142 -120.000000 0.000000
143 -118.522598 -18.772100
144 -114.126801 -37.082001
145 -106.920799 -54.478901
146 -97.082001 -70.534203
147 -84.852798 -84.852798
148 -70.534203 -97.082001
149 -54.478901 -106.920799
150 -37.082001 -114.126801
151 -18.772100 -118.522598
152 -0.000000 -120.000000
153 18.772100 -118.522598
154 37.082001 -114.126801
155 54.478901 -106.920799
156 70.534203 -97.082001
157 84.852798 -84.852798
158 97.082001 -70.534203
159 106.920799 -54.478901
160 114.126801 -37.082001
161 118.522598 -18.772100
162 150.000000 0.000000
163 148.153305 23.465200
164 142.658493 46.352501
165 133.651001 68.098602
166 121.352501 88.167801
167 106.066002 106.066002
168 88.167801 121.352501
169 68.098602 133.651001
170 46.352501 142.658493
171 23.465200 148.153305
172 0.000000 150.000000
173 -23.465200 148.153305
174 -46.352501 142.658493
175 -68.098602 133.651001
176 -88.167801 121.352501
177 -106.066002 106.066002
178 -121.352501 88.167801
179 -133.651001 68.098602
180 -142.658493 46.352501
181 -148.153305 23.465200
182 -150.000000 0.000000
183 -148.153305 -23.465200
184 -142.658493 -46.352501
185 -133.651001 -68.098602
186 -121.352501 -88.167801
187 -106.066002 -106.066002
188 -88.167801 -121.352501
189 -68.098602 -133.651001
190 -46.352501 -142.658493
191 -23.465200 -148.153305
192 -0.000000 -150.000000
193 23.465200 -148.153305
194 46.352501 -142.658493
195 68.098602 -133.651001
196 88.167801 -121.352501
197 106.066002 -106.066002
198 121.352501 -88.167801
199 133.651001 -68.098602
200 142.658493 -46.352501
201 148.153305 -23.465200
202 180.000000 0.000000
203 177.783905 28.158199
204 171.190201 55.623100
205 160.381195 81.718300
206 145.623093 105.801300
207 127.279198 127.279198
208 105.801300 145.623093
209 81.718300 160.381195
210 55.623100 171.190201
211 28.158199 177.783905
212 0.000000 180.000000
213 -28.158199 177.783905
214 -55.623100 171.190201
215 -81.718300 160.381195
216 -105.801300 145.623093
217 -127.279198 127.279198
218 -145.623093 105.801300
219 -160.381195 81.718300
220 -171.190201 55.623100
221 -177.783905 28.158199
222 -180.000000 0.000000
223 -177.783905 -28.158199
224 -171.190201 -55.623100
225 -160.381195 -81.718300
226 -145.623093 -105.801300
227 -127.279198 -127.279198
228 -105.801300 -145.623093
229 -81.718300 -160.381195
230 -55.623100 -171.190201
231 -28.158199 -177.783905
232 -0.000000 -180.000000
233 28.158199 -177.783905
234 55.623100 -171.190201
235 81.718300 -160.381195
236 105.801300 -145.623093
237 127.279198 -127.279198
238 145.623093 -105.801300
239 160.381195 -81.718300
240 171.190201 -55.623100
241 177.783905 -28.158199
242 210.000000 0.000000
243 207.414597 32.851200
244 199.721893 64.893600
245 187.111404 95.337997
246 169.893600 123.434898
247 148.492401 148.492401
248 123.434898 169.893600
249 95.337997 187.111404
250 64.893600 199.721893
251 32.851200 207.414597
252 0.000000 210.000000
253 -32.851200 207.414597
254 -64.893600 199.721893
255 -95.337997 187.111404
256 -123.434898 169.893600
257 -148.492401 148.492401
258 -169.893600 123.434898
259 -187.111404 95.337997
260 -199.721893 64.893600
261 -207.414597 32.851200
262 -210.000000 0.000000
263 -207.414597 -32.851200
264 -199.721893 -64.893600
265 -187.111404 -95.337997
266 -169.893600 -123.434898
267 -148.492401 -148.492401
268 -123.434898 -169.893600
269 -95.337997 -187.111404
270 -64.893600 -199.721893
271 -32.851200 -207.414597
272 -0.000000 -210.000000
273 32.851200 -207.414597
274 64.893600 -199.721893
275 95.337997 -187.111404
276 123.434898 -169.893600
277 148.492401 -148.492401
278 169.893600 -123.434898
279 187.111404 -95.337997
280 199.721893 -64.893600
281 207.414597 -32.851200
282 240.000000 0.000000
283 237.045197 37.544300
284 228.253601 74.164101
285 213.841599 108.957703
286 194.164093 141.068497
287 169.705597 169.705597
288 141.068497 194.164093
289 108.957703 213.841599
290 74.164101 228.253601
291 37.544300 237.045197
292 0.000000 240.000000
293 -37.544300 237.045197
294 -74.164101 228.253601
295 -108.957703 213.841599
296 -141.068497 194.164093
297 -169.705597 169.705597
298 -194.164093 141.068497
299 -213.841599 108.957703
300 -228.253601 74.164101
301 -237.045197 37.544300
302 -240.000000 0.000000
303 -237.045197 -37.544300
304 -228.253601 -74.164101
305 -213.841599 -108.957703
306 -194.164093 -141.068497
307 -169.705597 -169.705597
308 -141.068497 -194.164093
309 -108.957703 -213.841599
310 -74.164101 -228.253601
311 -37.544300 -237.045197
312 -0.000000 -240.000000
313 37.544300 -237.045197
314 74.164101 -228.253601
315 108.957703 -213.841599
316 141.068497 -194.164093
317 169.705597 -169.705597
318 194.164093 -141.068497
319 213.841599 -108.957703
320 228.253601 -74.164101
321 237.045197 -37.544300
322 270.000000 0.000000
323 266.675903 42.237301
324 256.785309 83.434601
325 240.571793 122.577400
326 218.434601 158.701996
327 190.918793 190.918793
328 158.701996 218.434601
329 122.577400 240.571793
330 83.434601 256.785309
331 42.237301 266.675903
332 0.000000 270.000000
333 -42.237301 266.675903
334 -83.434601 256.785309
335 -122.577400 240.571793
336 -158.701996 218.434601
337 -190.918793 190.918793
338 -218.434601 158.701996
339 -240.571793 122.577400
340 -256.785309 83.434601
341 -266.675903 42.237301
342 -270.000000 0.000000
343 -266.675903 -42.237301
344 -256.785309 -83.434601
345 -240.571793 -122.577400
346 -218.434601 -158.701996
347 -190.918793 -190.918793
348 -158.701996 -218.434601
349 -122.577400 -240.571793
350 -83.434601 -256.785309
351 -42.237301 -266.675903
352 -0.000000 -270.000000
353 42.237301 -266.675903
354 83.434601 -256.785309
355 122.577400 -240.571793
356 158.701996 -218.434601
357 190.918793 -190.918793
358 218.434601 -158.701996
359 240.571793 -122.577400
360 256.785309 -83.434601
361 266.675903 -42.237301
362 300.000000 0.000000
363 296.306488 46.930302
364 285.316986 92.705101
365 267.302002 136.197098
366 242.705093 176.335602
367 212.132004 212.132004
368 176.335602 242.705093
369 136.197098 267.302002
370 92.705101 285.316986
371 46.930302 296.306488
372 0.000000 300.000000
373 -46.930302 296.306488
374 -92.705101 285.316986
375 -136.197098 267.302002
376 -176.335602 242.705093
377 -212.132004 212.132004
378 -242.705093 176.335602
379 -267.302002 136.197098
380 -285.316986 92.705101
381 -296.306488 46.930302
382 -300.000000 0.000000
383 -296.306488 -46.930302
384 -285.316986 -92.705101
385 -267.302002 -136.197098
386 -242.705093 -176.335602
387 -212.132004 -212.132004
388 -176.335602 -242.705093
389 -136.197098 -267.302002
390 -92.705101 -285.316986
391 -46.930302 -296.306488
392 -0.000000 -300.000000
393 46.930302 -296.306488
394 92.705101 -285.316986
395 136.197098 -267.302002
396 176.335602 -242.705093
397 212.132004 -212.132004
398 242.705093 -176.335602
399 267.302002 -136.197098
400 285.316986 -92.705101
401 296.306488 -46.930302
402 330.000000 0.000000
403 325.937195 51.623402
404 313.848694 101.975601
405 294.032196 149.816895
406 266.975586 193.969101
407 233.345200 233.345200
408 193.969101 266.975586
409 149.816895 294.032196
410 101.975601 313.848694
411 51.623402 325.937195
412 0.000000 330.000000
413 -51.623402 325.937195
414 -101.975601 313.848694
415 -149.816895 294.032196
416 -193.969101 266.975586
417 -233.345200 233.345200
418 -266.975586 193.969101
419 -294.032196 149.816895
420 -313.848694 101.975601
421 -325.937195 51.623402
422 -330.000000 0.000000
423 -325.937195 -51.623402
424 -313.848694 -101.975601
425 -294.032196 -149.816895
426 -266.975586 -193.969101
427 -233.345200 -233.345200
428 -193.969101 -266.975586
429 -149.816895 -294.032196
430 -101.975601 -313.848694
431 -51.623402 -325.937195
432 -0.000000 -330.000000
433 51.623402 -325.937195
434 101.975601 -313.848694
435 149.816895 -294.032196
436 193.969101 -266.975586
437 233.345200 -233.345200
438 266.975586 -193.969101
439 294.032196 -149.816895
440 313.848694 -101.975601
441 325.937195 -51.623402
442 360.000000 0.000000
443 355.567810 56.316399
444 342.380310 111.246101
445 320.762299 163.436600
446 291.246094 211.602707
447 254.558395 254.558395
448 211.602707 291.246094
449 163.436600 320.762299
450 111.246101 342.380310
451 56.316399 355.567810
452 0.000000 360.000000
453 -56.316399 355.567810
454 -111.246101 342.380310
455 -163.436600 320.762299
456 -211.602707 291.246094
457 -254.558395 254.558395
458 -291.246094 211.602707
459 -320.762299 163.436600
460 -342.380310 111.246101
461 -355.567810 56.316399
462 -360.000000 0.000000
463 -355.567810 -56.316399
464 -342.380310 -111.246101
465 -320.762299 -163.436600
466 -291.246094 -211.602707
467 -254.558395 -254.558395
468 -211.602707 -291.246094
469 -163.436600 -320.762299
470 -111.246101 -342.380310
471 -56.316399 -355.567810
472 -0.000000 -360.000000
473 56.316399 -355.567810
474 111.246101 -342.380310
475 163.436600 -320.762299
476 211.602707 -291.246094
477 254.558395 -254.558395
478 291.246094 -211.602707
479 320.762299 -163.436600
480 342.380310 -111.246101
481 355.567810 -56.316399
482 390.000000 0.000000
483 385.198486 61.009399
484 370.911987 120.516602
485 347.492493 177.056305
486 315.516602 229.236206
487 275.771606 275.771606
488 229.236206 315.516602
489 177.056305 347.492493
490 120.516602 370.911987
491 61.009399 385.198486
492 0.000000 390.000000
493 -61.009399 385.198486
494 -120.516602 370.911987
495 -177.056305 347.492493
496 -229.236206 315.516602
497 -275.771606 275.771606
498 -315.516602 229.236206
499 -347.492493 177.056305
500 -370.911987 120.516602
501 -385.198486 61.009399
502 -390.000000 0.000000
503 -385.198486 -61.009399
504 -370.911987 -120.516602
505 -347.492493 -177.056305
506 -315.516602 -229.236206
507 -275.771606 -275.771606
508 -229.236206 -315.516602
509 -177.056305 -347.492493
510 -120.516602 -370.911987
511 -61.009399 -385.198486
512 -0.000000 -390.000000
513 61.009399 -385.198486
514 120.516602 -370.911987
515 177.056305 -347.492493
516 229.236206 -315.516602
517 275.771606 -275.771606
518 315.516602 -229.236206
519 347.492493 -177.056305
520 370.911987 -120.516602
521 385.198486 -61.009399
522 420.000000 0.000000
523 414.829102 65.702499
524 399.443695 129.787094
525 374.222687 190.675995
526 339.787109 246.869797
527 296.984802 296.984802
528 246.869797 339.787109
529 190.675995 374.222687
530 129.787094 399.443695
531 65.702499 414.829102
532 0.000000 420.000000
533 -65.702499 414.829102
534 -129.787094 399.443695
535 -190.675995 374.222687
536 -246.869797 339.787109
537 -296.984802 296.984802
538 -339.787109 246.869797
539 -374.222687 190.675995
540 -399.443695 129.787094
541 -414.829102 65.702499
542 -420.000000 0.000000
543 -414.829102 -65.702499
544 -399.443695 -129.787094
545 -374.222687 -190.675995
546 -339.787109 -246.869797
547 -296.984802 -296.984802
548 -246.869797 -339.787109
549 -190.675995 -374.222687
550 -129.787094 -399.443695
551 -65.702499 -414.829102
552 -0.000000 -420.000000
553 65.702499 -414.829102
554 129.787094 -399.443695
555 190.675995 -374.222687
556 246.869797 -339.787109
557 296.984802 -296.984802
558 339.787109 -246.869797
559 374.222687 -190.675995
560 399.443695 -129.787094
561 414.829102 -65.702499
562 450.000000 0.000000
563 444.459808 70.395500
564 427.975403 139.057602
565 400.952911 204.295700
566 364.057587 264.503387
567 318.198090 318.198090
568 264.503387 364.057587
569 204.295700 400.952911
570 139.057602 427.975403
571 70.395500 444.459808
572 0.000000 450.000000
573 -70.395500 444.459808
574 -139.057602 427.975403
575 -204.295700 400.952911
576 -264.503387 364.057587
577 -318.198090 318.198090
578 -364.057587 264.503387
579 -400.952911 204.295700
580 -427.975403 139.057602
581 -444.459808 70.395500
582 -450.000000 0.000000
583 -444.459808 -70.395500
584 -427.975403 -139.057602
585 -400.952911 -204.295700
586 -364.057587 -264.503387
587 -318.198090 -318.198090
588 -264.503387 -364.057587
589 -204.295700 -400.952911
590 -139.057602 -427.975403
591 -70.395500 -444.459808
592 -0.000000 -450.000000
593 70.395500 -444.459808
594 139.057602 -427.975403
595 204.295700 -400.952911
596 264.503387 -364.057587
597 318.198090 -318.198090
598 364.057587 -264.503387
599 400.952911 -204.295700
600 427.975403 -139.057602
601 444.459808 -70.395500
602 480.000000 0.000000
603 474.090393 75.088501
604 456.507111 148.328201
605 427.683105 217.915405
606 388.328186 282.136902
607 339.411285 339.411285
608 282.136902 388.328186
609 217.915405 427.683105
610 148.328201 456.507111
611 75.088501 474.090393
612 0.000000 480.000000
613 -75.088501 474.090393
614 -148.328201 456.507111
615 -217.915405 427.683105
616 -282.136902 388.328186
617 -339.411285 339.411285
618 -388.328186 282.136902
619 -427.683105 217.915405
620 -456.507111 148.328201
621 -474.090393 75.088501
622 -480.000000 0.000000
623 -474.090393 -75.088501
624 -456.507111 -148.328201
625 -427.683105 -217.915405
626 -388.328186 -282.136902
627 -339.411285 -339.411285
628 -282.136902 -388.328186
629 -217.915405 -427.683105
630 -148.328201 -456.507111
631 -75.088501 -474.090393
632 -0.000000 -480.000000
633 75.088501 -474.090393
634 148.328201 -456.507111
635 217.915405 -427.683105
636 282.136902 -388.328186
637 339.411285 -339.411285
638 388.328186 -282.136902
639 427.683105 -217.915405
640 456.507111 -148.328201
641 474.090393 -75.088501
GVRP_SET_SECTION 
 1 602  522  562 -1
 2  622  582 -1
 3  612  532  572 -1
 4  632  592 -1
 5  7  2  3  4  5  6  8  9  10  11  12  13  14  15  16  17  18  32  33  34  35  36  37  38  39  40  41  43  44  45  46  47  48  49  50  51  52 -1
 6  607  567 -1
 7  617  537  577 -1
 8  627  547  587 -1
 9  637  557  597 -1
 10  304  263  264  303  305  344 -1
 11  314  274  275  313  315  353  354  355 -1
 12  297  257  258  296  298  337 -1
 13  324  284  323  325  364 -1
 14  330  290  329  331  370 -1
 15  389  349  388  390  428  429  430 -1
 16  399  359  398  400  438  439 -1
 17  454  414  494 -1
 18  460  420  500 -1
 19  505  465  545 -1
 20  515  475  555 -1
 21  525  485  565  605 -1
 22  529  489  569  609 -1
 23  148  107  108  109  110  146  147  149  187  188  189 -1
 24  629  589 -1
 25  639  599 -1
 26  198  157  158  197  199  237  238 -1
 27  407  367  447 -1
 28  207  167  168  206  208  247 -1
 29  213  172  173  174  212  214  253 -1
 30  615  575 -1
 31  619  579 -1
 32  140  99  100  101  139  141  142  179  180 -1
 33  432  392  393  472 -1
 34  463  423  503 -1
 35  442  402  482 -1
 36  457  417  458  497 -1
 37  467  427  468  507 -1
 38  477  437  476  478  517 -1
 39  452  412  492 -1
 40  624  584 -1
 41  634  594 -1
 42  300  259  260  299  301  339  340 -1
 43  271  231  270  272  310  311  312 -1
 44  163  122  123  124  162  164  203  204 -1
 45  510  470  550 -1
 46  520  480  560 -1
 47  307  267  306  308  346  347  348 -1
 48  321  281  282  320  322  360  361 -1
 49  317  276  277  316  318  357  358 -1
 50  114  70  71  72  73  74  75  76  77  111  112  113  115  116  117  153  154 -1
 51  553  513  593  633 -1
 52  604  524  564 -1
 53  610  530  570 -1
 54  130  88  89  90  91  128  129  131  132  169  170  171 -1
 55  333  293  332  334  372  373  374 -1
 56  184  143  144  145  183  185  223  224 -1
 57  444  404  484 -1
 58  450  410  490 -1
 59  523  483  563  603 -1
 60  531  491  571  611 -1
 61  533  493  573  613 -1
 62  536  496  576  616 -1
 63  538  498  578  618 -1
 64  541  501  581  621 -1
 65  548  508  588  628 -1
 66  558  518  598  638 -1
 67  95  53  54  55  56  57  58  92  93  94  96  97  98  133  134  135  136 -1
 68  342  302  341  343  382  383 -1
 69  335  295  336  375 -1
 70  434  394  435  474 -1
 71  64  19  20  21  22  23  24  25  26  27  28  29  30  31  59  60  61  62  63  65  66  67  68  69  102  103  104  105  106 -1
 72  583  543  623 -1
 73  586  546  626 -1
 74  591  551  631 -1
 75  596  516  556  636 -1
 76  601  521  561  641 -1
 77  326  286  287  327  366 -1
 78  328  288  368 -1
 79  566  526  606 -1
 80  568  528  608 -1
 81  574  534  614 -1
 82  580  540  620 -1
 83  625  585 -1
 84  630  590 -1
 85  635  595 -1
 86  640  600 -1
 87  378  338  377  379  418  419 -1
 88  385  345  384  386  424  425  426 -1
 89  396  356  395  397  436 -1
 90  120  42  78  79  80  81  82  83  118  119  121  159  160  161 -1
 91  177  137  138  175  176  178  216  217  218 -1
 92  233  193  232  234  273 -1
 93  245  205  244  246  285 -1
 94  249  209  210  248  250  289 -1
 95  251  211  252  291  292 -1
 96  269  228  229  268  309 -1
 97  279  239  278  280  319 -1
 98  495  455  535 -1
 99  499  459  539 -1
 100  502  462  542 -1
 101  126  84  85  86  87  125  127  165  166 -1
 102  221  181  182  219  220  222  261  262 -1
 103  403  362  363  443 -1
 104  405  365  445 -1
 105  409  369  449 -1
 106  411  371  451 -1
 107  416  376  415  456 -1
 108  421  380  381  422  461 -1
 109  441  401  440  481 -1
 110  446  406  486 -1
 111  448  408  488 -1
 112  471  431  511 -1
 113  504  464  544 -1
 114  509  469  549 -1
 115  519  479  559 -1
 116  191  150  151  152  190  192  230 -1
 117  195  155  156  194  196  235  236 -1
 118  226  186  225  227  265  266 -1
 119  241  200  201  202  240 -1
 120  243  242  283 -1
 121  255  215  254  256  294 -1
 122  351  350  352  391 -1
 123  387 -1
 124  413  453 -1
 125  473  433 -1
 126  487  527 -1
 127  506  466 -1
 128  512  552 -1
 129  514  554 -1
 DEMAND_SECTION
 1 30 
 2 20 
 3 90 
 4 60 
 5 750 
 6 60 
 7 30 
 8 90 
 9 30 
 10 160 
 11 140 
 12 80 
 13 130 
 14 70 
 15 110 
 16 140 
 17 30 
 18 90 
 19 30 
 20 90 
 21 40 
 22 40 
 23 230 
 24 20 
 25 60 
 26 90 
 27 90 
 28 160 
 29 110 
 30 60 
 31 60 
 32 210 
 33 100 
 34 90 
 35 30 
 36 40 
 37 120 
 38 70 
 39 90 
 40 60 
 41 20 
 42 190 
 43 170 
 44 200 
 45 30 
 46 90 
 47 170 
 48 110 
 49 110 
 50 330 
 51 40 
 52 90 
 53 30 
 54 240 
 55 110 
 56 200 
 57 90 
 58 30 
 59 120 
 60 120 
 61 40 
 62 120 
 63 40 
 64 40 
 65 120 
 66 40 
 67 310 
 68 100 
 69 120 
 70 60 
 71 590 
 72 90 
 73 30 
 74 90 
 75 120 
 76 40 
 77 90 
 78 90 
 79 30 
 80 90 
 81 30 
 82 90 
 83 20 
 84 20 
 85 60 
 86 60 
 87 100 
 88 110 
 89 130 
 90 280 
 91 150 
 92 70 
 93 70 
 94 80 
 95 150 
 96 90 
 97 130 
 98 90 
 99 90 
 100 30 
 101 150 
 102 120 
 103 100 
 104 30 
 105 30 
 106 90 
 107 120 
 108 70 
 109 60 
 110 30 
 111 90 
 112 90 
 113 90 
 114 30 
 115 90 
 116 150 
 117 190 
 118 80 
 119 90 
 120 70 
 121 110 
 122 100 
 123 30 
 124 20 
 125 20 
 126 60 
 127 20 
 128 60 
 129 20 
EOF
